clear
units         real
dimension     3
boundary     p p p
atom_style	    charge
variable dt equal 1

read_data data/SiO1-6.data

pair_style	    reaxff  topcon.control
pair_coeff	    * * potential/ffield_Nayir_SiO_2019.reax H O Si



neighbor        2 bin
neigh_modify    every 10 delay 0 check no

timestep $(dt)


#fix 1 all nve
fix r1 all qeq/reax 1 0.0 10.0 1e-6 reaxff

