clear
units         real
dimension     3
boundary     p p p
atom_style	    charge
variable dt equal 1

read_data data/SilicaUnitCell.data
replicate 3 3 3




pair_style	    reaxff  topcon.control
pair_coeff	    * * potential/ffield_Nayir_SiO_2019.reax H O Si


thermo 10
neighbor        2 bin
neigh_modify    every 10 delay 0 check no

timestep $(dt)

dump d1 all custom 10000 ${output_folder}silicaanneal.dump id type q x y z ix iy iz mass element vx vy vz
dump_modify d1 element H O Si

#fix 1 all nve
fix r1 all qeq/reax 1 0.0 10.0 1e-6 reaxff

#fix 3 all temp/berendsen 500 500.0 100.0
min_style hftn
minimize 1.0e-10 1.0e-10 10000 10000






