clear
units       real
dimension   3
boundary    p p p
atom_style  charge

#atom_modify map array
variable dt equal .01

#read_data data/SilicaCrystal3x.data
read_data data/risingTChkPt.data

pair_style	    reaxff topcon.control
pair_coeff	    * * potential/HOSi.reax H O Si
#Pair style reaxff requires use of exactly one of the fix qeq/reaxff or fix qeq/shielded or fix acks2/reaxff commands 



neighbor        2.5 bin
neigh_modify    every 10 delay 0 check no

timestep ${dt}

thermo 100
dump d1 all custom 100 equilibrium.dump id type q x y z ix iy iz mass element vx vy vz
dump_modify d1 element H O Si




fix r1 all qeq/reaxff 1 0.0 10.0 1e-6 reaxff

# minimize 0 1.0e-6 1000 1000
# thermo 100

velocity all create 1000.0 4928459 rot yes dist gaussian
fix f1 all nve/limit 0.01
#fix f3 all nvt temp 1000 1000 100

run 10000

#write_data data/risingTChkPt.data
