
clear
units         real
dimension     3
boundary    p p p
atom_style  charge

#atom_modify map array
variable dt equal .5

lattice diamond 7.16

region island sphere 0 0 0 3
region sim block -5 5 -5 5 -5 5
create_box 3 sim

create_atoms 3 region island
create_atoms 2 random 1500 12453 island overlap .3 maxtry 200

group Oatms type 2
group igroup region island

lattice diamond 5.14
mass         1 1.00784 #H
mass         2 15.9991 #O
mass         3 28.0855 #Si


pair_style	    reaxff topcon.control
pair_coeff	    * * potential/HOSi.reax H O Si
#Pair style reaxff requires use of exactly one of the fix qeq/reaxff or fix qeq/shielded or fix acks2/reaxff commands 


neighbor        2.5 bin
neigh_modify    every 10 delay 0 check yes

timestep ${dt}

thermo 100
thermo_style custom step time temp etotal press

#fix r1 all acks2/reaxff 1 0.0 10.0 1e-6 reaxff
fix r1 all qeq/reaxff  1 0.0 10.0 1e-6 reaxff

delete_atoms overlap 1 Oatms Oatms

minimize 0 1.0e-9 1000 1000

#dump after minimization
dump d1 all custom 10 island.dump id type q x y z ix iy iz mass element vx vy vz
dump_modify d1 element H O Si

#velocity all create 300.0 4928459 rot yes dist gaussian

fix f1 all nvt temp 50 50 100
run 10000

print 'done'





