clear
units         metal
dimension     3
boundary     p p p
atom_style	    charge
variable boxdim equal 5.14
variable latticedim equal 5.14

#lattice diamond $(v_latticedim)#Ang
#atom_modify map array
variable dt equal 0.001

#region sim block $(-v_boxdim2) $(v_boxdim/2) $(-v_boxdim/2) $(v_boxdim/2) $(-v_boxdim/2) $(v_boxdim/2) 
region sim block 0 $(v_boxdim) 0 $(v_boxdim) 0 $(v_boxdim)
create_box 3 sim


create_atoms 3 single 2.6 2.6 2.6
create_atoms 2 single 1.5 1.5 1.5
create_atoms 2 single 4 4 4


# create_atoms 1 single -1.154403 1.999485 1.801733
# create_atoms 1 single -1.154403 -1.999485 0.000000
# create_atoms 2 single 1.375998 1.140800 4.245244
# create_atoms 2 single -1.675961 0.621249 7.848711 
# create_atoms 2 single 0.299963 -1.762049 6.046977
# create_atoms 2 single 0.299963 1.762049 4.245244
# create_atoms 2 single -1.675961 -0.621249 -0.64177
# create_atoms 2 single 1.375998 -1.140800 -2.443511

mass         1 1.00784 #H
mass         2 15.9991 #O
mass         3 28.0855 #Si

pair_style	    reaxff NULL#/c lmp_control.lmp
pair_coeff	    * * ../potential/HOSi.reax H O Si

neighbor	    2 bin
neigh_modify	every 10 delay 0 check no

timestep 0.001

dump D1 all atom 10 testing.dump
thermo 10

fix r1 all qeq/reax 1 0.0 10.0 1e-6 reaxff

min_style hftn
minimize 1.0e-6 1.0e-6 1000 1000

velocity all create 300.0 4928459 rot yes dist gaussian
# fix f1 all temp/berendsen 1.0 1 10
# run 100


fix f2 all nvt temp 300 1000 .1
run 1000
#fix f2 all npt temp 300.0 1000.0 100.0 iso 0.0 0.0 1000.0

# fix f2 all nvt temp 20 20 100 
# fix f1 all nve
# run	1000
