clear
units       real
dimension   3
boundary    p p p
atom_style  charge

#atom_modify map array
variable dt equal .5

read_data data/SiO1-8SiStack.data

pair_style	    reaxff topcon.control
pair_coeff	    * * potential/ffield_Nayir_SiO_2019.reax H O Si
#Pair style reaxff requires use of exactly one of the fix qeq/reaxff or fix qeq/shielded or fix acks2/reaxff commands 



neighbor        2 bin
neigh_modify    every 10 delay 0 check yes

timestep ${dt}

thermo 100
thermo_style custom step time temp etotal pe press ke vol


dump d1 all custom 100 ${output_folder}equib.dump id type q x y z ix iy iz mass element vx vy vz
dump_modify d1 element H O Si


fix r1 all qeq/reaxff 1 0.0 10.0 1e-6 reaxff maxiter 400


#velocity all create 300.0 4928459 rot yes dist gaussian

fix f1 all nvt temp 300 3000 100
run $(5000*(1/v_dt))#divide by timestep to make the run time in fs
unfix f1


fix f1 all nvt temp 3000 300 100
run $(5000*(1/v_dt))#divide by timestep to make the run time in fs
unfix f1

fix f1 all nvt temp 300 300 100
run $(5000*(1/v_dt))#divide by timestep to make the run time in fs
unfix f1

write_data ${output_folder}postequib.data

