
clear
units         real
dimension     2
boundary    p p p
atom_style  charge

#atom_modify map array
variable dt equal .5
variable l equal 5.43
variable p equal 4.5
variable b equal sqrt(3.0)/2



lattice hex $l
region island sphere 0 0 0 10
region sim block -20 20 -20 20 -0.3 0.3

region innerisland sphere 0 0 0 9
region outerisland sphere 0 0 0 10

create_box 3 sim


create_atoms 3 region sim
delete_atoms region island

lattice hex $p
create_atoms 3 region island
lattice custom $p a1 1 0.0 0.0 a2 0.0 $b 0.0 a3 0.0 0.0 1.0 basis 0.0 0.0 0.0 basis 0.6 0.6 0.0
create_atoms 2 region island ratio .8 1212345

#create_atoms 2 random 350 12345 island overlap .4 maxtry 200

mass         1 1.00784 #H
mass         2 15.9991 #O
mass         3 28.0855 #Si


pair_style	    reaxff potential/topcon.control
pair_coeff	    * * potential/HOSi.reax H O Si
#Pair style reaxff requires use of exactly one of the fix qeq/reaxff or fix qeq/shielded or fix acks2/reaxff commands 

neighbor        2.5 bin
neigh_modify    every 10 delay 0 check yes

timestep ${dt}

thermo 1000

dump d1 all custom 100 island.dump id type q x y z ix iy iz mass element vx vy vz
dump_modify d1 element H O Si

group Oatms type 2


fix r1 all qeq/reaxff 1 0.0 7.0 1e-6 reaxff maxiter 400
fix ff all enforce2d

delete_atoms overlap .3 Oatms all 

group igroup region outerisland#heat up just inside the SiO region

group Oatms type 2
group Siatms type 3


# minimize 0 1.0e-9 1000 1000




#velocity all create 7000.0 4928459 rot yes dist gaussian

fix f1 igroup nvt temp 1 1 100
run 20000
unfix f1


fix f1 igroup nvt temp 1000 1000 100
run 5000
unfix f1

fix f1 igroup nvt temp 1 1 100
run 50000
unfix f1
# fix f1 igroup nvt temp 1 1 100
# run 20000
# unfix f1


write_restart data/island2dEnd.restart