clear
units         real
dimension     3
boundary     p p p
atom_style	    charge
# variable lconst equal 5.1463944279
# variable boxdim equal v_lconst
#atom_modify map array
variable dt equal 0.5



#region sim block $(-v_boxdim/2) $(v_boxdim/2) $(-v_boxdim/2) $(v_boxdim/2) $(-v_boxdim/2) $(v_boxdim/2) 
#region top block 2 3 2 3 2 3
#region bot block 0 2 0 2 0 2 
#read_data data/BCristobaliteSilicaUnitCell.data# add append
read_data data/SilicaUnitCell.data
replicate 5 5 5


#====================================================

# mass         1 28.0855 #Si
# mass         2 15.9991 #O
# mass         3 1.00784 #H



pair_style	    reaxff NULL#/c lmp_control.lmp
pair_coeff	    * * potential/HOSi.reax H O Si


thermo 10
neighbor        2 bin
neigh_modify    every 10 delay 0 check no

timestep $(dt)


#fix 1 all nve
fix r1 all qeq/reax 1 0.0 10.0 1e-6 reaxff
#fix 3 all temp/berendsen 500 500.0 100.0
min_style hftn
minimize 1.0e-6 1.0e-6 1000 1000

write_data data/SilicaCrystal3k.data




