clear
units         metal
dimension     3
boundary     p p p
atom_style	    charge
variable lconst equal 5.1463944279
variable boxdim equal v_lconst
#atom_modify map array
variable dt equal 0.0005



###
lattice diamond $(v_lconst)#Ang

region sim block $(-v_boxdim/2) $(v_boxdim/2) $(-v_boxdim/2) $(v_boxdim/2) $(-v_boxdim/2) $(v_boxdim/2) 
#region top block 2 3 2 3 2 3
#region bot block 0 2 0 2 0 2 
read_data SiOH.data# add append
replicate 7 7 7

# create_box 3 sim

# create_atoms 1 single 2.308807 0.000000 $(v_boxdim-3.603467) 
# create_atoms 1 single -1.154403 1.999485 1.801733
# create_atoms 1 single -1.154403 -1.999485 0.000000
# create_atoms 2 single 1.375998 1.140800 $(4.245244-v_boxdim)
# create_atoms 2 single -1.675961 0.621249 $(7.848711-v_boxdim) 
# create_atoms 2 single 0.299963 -1.762049 $(6.046977-v_boxdim)
# create_atoms 2 single 0.299963 1.762049 $(v_boxdim-4.245244) 
# create_atoms 2 single -1.675961 -0.621249 -0.64177
# create_atoms 2 single 1.375998 -1.140800 -2.443511

#====================================================

# mass         1 28.0855 #Si
# mass         2 15.9991 #O
# mass         3 1.00784 #H



pair_style	    reaxff NULL#/c lmp_control.lmp
pair_coeff	    * * ../potential/SiOH.reax Si O H


thermo 10
neighbor        2 bin
neigh_modify    every 10 delay 0 check no

#fix 1 all nve
fix 2 all qeq/reax 1 0.0 10.0 1e-6 ../potential/param.qeq
#fix 3 all temp/berendsen 500 500.0 100.0
min_style hftn
minimize 1.0e-6 1.0e-6 1000 1000

timestep $(dt)
dump		    1 all atom 10 data-topcon.dump

run 200

write_data SilicaCrystal3k.data




