clear
units         real
dimension     3
boundary    p p p
atom_style  charge
atom_modify map yes

variable seed equal 12345
variable NA equal 6.02e23


variable printevery equal 100000
variable restartevery equal 0#500000
timestep 0.5

variable massSi equal 28.0855 #Si
variable massO equal 15.9991 #O
variable massH equal  1.00784 #H

region sim block 0 1 0 1 0 1
        
        
lattice diamond {a}

create_box 3 sim

read_dump ${infile} {dumpstep} x y z box yes add keep

mass         3 $(v_massH)
mass         2 $(v_massO)
mass         1 $(v_massSi)

lattice none 1.0
min_style quickmin

region wafer block EDGE EDGE EDGE EDGE 1.0 2.0 units lattice
group CRYST region wafer



group SILICON type 1
group OXYGEN type 2
group HYDROGEN type 3

group cSi intersect CRYST SILICON

group mobile subtract all cSi

pair_style	    reaxff potential/topcon.control 
pair_coeff	    * * potential/ffield_Nayir_SiO_2019.reax Si O H



neighbor        2 bin
neigh_modify    every 10 delay 0 check no

thermo $(v_printevery)
thermo_style custom step temp density press vol pe ke etotal #flush yes
thermo_modify lost ignore



dump d1 all custom 100000 ${output_folder}createdat.dump id type q x y z ix iy iz mass element vx vy vz
dump_modify d1 element Si O H



fix r1 all qeq/reax 1 0.0 10.0 1e-6 reaxff
#compute c1 all property/atom x y z

reset_atom_ids


fix h1 mobile nvt temp 300 300 $(100.0 * dt)
run  600000
unfix h1

fix h2 mobile nvt temp 300 1 $(100.0 * dt)
run  8000000
unfix h2

minimize 7e-06 7e-06 100000 100000

group gSi type 1
group gO type 2
group gH type 3

variable tot equal $(count(gSi)+count(gO)+count(gH))
variable Htot equal count(gH)
variable perctH equal round($(100*v_Htot/v_tot))

print '~$(v_perctH)% Hydrogen'

write_data ${outfile}