clear
units         real
dimension     3
boundary     p p p
atom_style	    charge
#variable lconst equal "7.13/2"

#print "unit cell length $(v_lconst)"
#atom_modify map array
variable dt equal 0.5

# lattice custom $(v_lconst) a1 1 0.0 0.0 a2 0.0 1 0.0 a3 0.0 0.0 1 basis 0 0 0 basis 0.25 0.25 0.25 basis 0.875 0.875 0.125
# #lattice cubic $(v_lconst) basis 0.25 0.25 0.25 basis 0.875 0.875 0.125

region box block 0 7.13 0 7.13 0 7.13# 0 $(v_lconst) 0 $(v_lconst) 0 $(v_lconst)
create_box 3 box

#create_atoms 1 box basis 1 2 basis 2 3 basis 3 2
create_atoms 3 single 0.00000 0.00000 0.00000
create_atoms 3 single 0.00000 3.56500 3.56500
create_atoms 3 single 3.56500 3.56500 0.00000
create_atoms 3 single 3.56500 0.00000 3.56500
create_atoms 3 single 5.34750 1.78250 5.34750
create_atoms 3 single 1.78250 1.78250 1.78250
create_atoms 3 single 1.78250 5.34750 5.34750
create_atoms 3 single 5.34750 5.34750 1.78250
create_atoms 2 single 0.89125 0.89125 0.89125
create_atoms 2 single 6.23875 2.67375 4.45625
create_atoms 2 single 2.67375 4.45625 6.23875
create_atoms 2 single 4.45625 6.23875 2.67375
create_atoms 2 single 2.67375 6.23875 4.45625
create_atoms 2 single 6.23875 4.45625 2.67375
create_atoms 2 single 4.45625 2.67375 6.23875
create_atoms 2 single 0.89125 4.45625 4.45625
create_atoms 2 single 6.23875 6.23875 0.89125
create_atoms 2 single 2.67375 0.89125 2.67375
create_atoms 2 single 2.67375 2.67375 0.89125
create_atoms 2 single 6.23875 0.89125 6.23875
create_atoms 2 single 4.45625 0.89125 4.45625
create_atoms 2 single 0.89125 6.23875 6.23875
create_atoms 2 single 0.89125 2.67375 2.67375
create_atoms 2 single 4.45625 4.45625 0.89125

mass         1 1.00784 #H
mass         2 15.9991 #O
mass         3 28.0855 #Si


pair_style	    reaxff  topcon.control
pair_coeff	    * * potential/ffield_Nayir_SiO_2019.reax H O Si


thermo 10
neighbor        2 bin
neigh_modify    every 10 delay 0 check no

timestep $(dt)
dump d1 all custom 10 ${output_folder}creatextal.dump id type q x y z ix iy iz mass element vx vy vz
dump_modify d1 element H O Si

#fix 1 all nve
fix r1 all qeq/reax 1 0.0 10.0 1e-6 reaxff
#fix 3 all temp/berendsen 500 500.0 100.0
run 0


write_data ${output_folder}SilicaUnitCell.data

