
clear
units         real
dimension     2
boundary    p p p
atom_style  charge

#atom_modify map array
variable dt equal .5
variable l equal 5.43
variable p equal 4.5
variable b equal sqrt(3.0)/2



lattice hex $l
region island sphere 0 0 0 10
region sim block -7 7 -7 7 -0.3 0.3


create_box 3 sim

#create_atoms 3 random 400 12345 sim overlap .35 maxtry 2000
create_atoms 3 box
create_atoms 2 random 400 12345 sim overlap .3 maxtry 2000


mass         1 1.00784 #H
mass         2 15.9991 #O
mass         3 28.0855 #Si


pair_style	    reaxff potential/topcon.control
pair_coeff	    * * potential/HOSi.reax H O Si
#Pair style reaxff requires use of exactly one of the fix qeq/reaxff or fix qeq/shielded or fix acks2/reaxff commands 

neighbor        2.5 bin
neigh_modify    every 10 delay 0 check yes

timestep ${dt}

thermo 1000

dump d1 all custom 100 loneisland2d.dump id type q x y z ix iy iz mass element vx vy vz
dump_modify d1 element H O Si

group Oatms type 2


fix r1 all qeq/reaxff 1 0.0 7.0 1e-6 reaxff maxiter 400
fix ff all enforce2d

delete_atoms overlap .3 Oatms all 


group Oatms type 2
group Siatms type 3


# minimize 0 1.0e-9 10000 10000

fix f1 all npt temp 100 7000 100 iso 1.0 1.0 5000
run 2000
unfix f1

# minimize 0 1.0e-9 10000 10000

# fix f1 all nvt temp 100 7000 100
# run 50000
# unfix f1


fix f1 all nvt temp 7000 300 100
run 100000
unfix f1

fix f1 all nvt temp 300 300 100
run 500000
unfix f1

write_restart data/island2dEnd.restart