clear
units         real
dimension     3
boundary    p p p
atom_style  charge
atom_modify map array

#atom_modify map array

variable massSi equal 28.0855 #Si
variable massO equal 15.9991 #O
variable massH equal  1.00784 #H 


variable dt equal ${ts}
variable latticeConst equal 5.43

#timestep of 0.5 femptoseconds
variable printevery equal 1000
variable restartevery equal 0#500000
variable datapath string "${output_folder}data/"

variable maxneb equal 3000
variable maxclimb equal 1000
variable conv equal $(v_maxneb+v_maxclimb)

variable i equal part

shell mkdir ${datapath}

read_data ${output_folder}${fileID}-NEBI.data

mass         1 ${massSi}
mass         2 ${massO}
mass         3 ${massH}



pair_style	    reaxff potential/topcon.control
pair_coeff	    * * potential/ffield_Nayir_SiO_2019.reax Si O H
#Pair style reaxff requires use of exactly one of the fix qeq/reaxff or fix qeq/shielded or fix acks2/reaxff commands 


neighbor        2 bin
neigh_modify    every 10 delay 0 check no

timestep ${dt}
min_style quickmin


dump d1 all custom ${printevery} ${output_folder}o-neb.dump id type q x y z ix iy iz mass element vx vy vz
dump_modify d1 element Si O H
thermo_style custom step pe ke etotal epair
thermo ${printevery}
# thermo_style custom step temp density vol pe ke etotal #flush yes

#qeq/reax uses the Rappe and Goddard QEq technique which was used in the potential in Fogarty2010(p2) that this current potential is. based on 
fix r1 all qeq/reax 1 0.0 10.0 1e-6 reaxff



group gNEB id ${atom_id}

fix n1 gNEB neb 1 parallel ideal perp 1


neb ${etol} ${etol} ${maxneb} ${maxclimb} 100 final ${output_folder}${fileID}-NEBF.data

#if "${steps} == ${conv}"
write_dump all atom ${output_folder}o-neb.dump.$i
run 0