# ---------Initialize Simulation---------
clear
units         real
dimension     3
boundary    p p p
atom_style  charge
#atom_modify map array #likely is not needed


variable printevery equal 5000
variable restartevery equal 0#500000
variable datapath string "${output_folder}data/"

variable massSi equal 28.0855 #Si
variable massO equal 15.9991 #O
variable massH equal  1.00784 #H 

#timestep of 0.5 femptoseconds
variable dt1 equal 0.5 #timestep
variable dt2 equal 1.25

shell mkdir ${datapath}

variable zwidth equal 'zhi-zlo'
variable zwidth2 equal '(zhi-zlo)*2.2'
variable disp equal 1
variable zonehalfwidth equal 0


# ------- Create boxes --------
lattice diamond 5.43 orient x 1 0 0 orient y 0 1 0 orient z 0 0 1

read_data data/a-SiOx_1-8.data group gSiOx

#setting origin at 0
change_box all z final 0 ${zwidth} remap units box

region rSiOx block EDGE EDGE EDGE EDGE EDGE EDGE
group gSiOx region rSiOx

variable zzlo equal zlo
variable zzhi equal zhi
#width of annealing zone
variable zonewidthlo equal $(v_zwidth-v_zonehalfwidth)
variable zonewidthhi equal $(v_zwidth+v_zonehalfwidth)
variable czonehi equal $(v_zwidth2-v_zonehalfwidth)

change_box all z final 0 ${zwidth2} units box
region rCSi block EDGE EDGE EDGE EDGE ${zonewidthhi} ${czonehi} units box
region rBuffered block EDGE EDGE EDGE EDGE 0 ${zonewidthhi} units box
region sim block EDGE EDGE EDGE EDGE EDGE EDGE
#region rCSi intersect 2 sim rBuffered side 


create_atoms 3 region rCSi
group gCSi region rCSi

mass         1 ${massH}
mass         2 ${massO}
mass         3 ${massSi}




# ----------Define interatomic potential --------------
#Pair style reaxff requires use of exactly one of the fix qeq/reaxff or fix qeq/shielded or fix acks2/reaxff commands 
pair_style	    reaxff potential/topcon.control
pair_coeff	    * * potential/ffield_Nayir_SiO_2019.reax H O Si

#skin distance of 2 angstrom
neighbor        2 bin
neigh_modify    delay 10 check yes

timestep ${dt1}


#qeq/reax uses the Rappe and Goddard QEq technique which was used in the potential in Fogarty2010(p2) that this current potential is. based on 
fix r1 all qeq/reax 1 0.0 10.0 1e-3 reaxff
run 0


delete_atoms overlap 1.5 gSiOx gCSi

dump d1 all custom ${printevery} ${output_folder}Interface-CSi-SiOx.dump id type q x y z ix iy iz mass element vx vy vz
dump_modify d1 element H O Si

thermo ${printevery}
thermo_style custom step temp density vol pe ke etotal #flush yes
thermo_modify lost ignore
#thermo_style custom step temp density ke epair etotal v_eb v_ea v_elp v_ev v_epen v_ecoa v_ehb v_et v_eco v_ew v_ep v_eqeq
#restart ${restartevery} ${output_folder}data/SiOxRestart*.data

#@TODO z=0 needs a bit of annealing too

# ---------Molecular Dynamics-------------------

min_style cg
minimize 1.0e-6 1.0e-6 10000 10000

velocity gSiOx create 1100.0 9872567 mom yes rot no dist gaussian




fix f1 gSiOx nvt temp 1100 1100 250
run 100000 #divide by timestep to make the run time in fs
unfix f1

fix f2 all momentum 100 linear 1 1 1
fix f1 gSiOx npt temp 1100 300 250 iso 0 0 1000 drag 1.0 mtk yes
run 500000 #divide by timestep to make the run time in fs
unfix f1
unfix f2